Geometry = GenFormat {
6  S
Si   O
1      1      0.000000000000000     -0.000000000000000      0.000000000000000
2      1     -1.847750000000000     -1.847750000000000      1.847750000000000
3      2      0.923875000000000      0.923875000000000      0.923875000000000
4      2     -0.923875000000000     -0.923875000000000      0.923875000000000
5      2     -0.923875000000000      0.923874999999999     -0.923875000000000
6      2      0.923875000000000     -0.923875000000000     -0.923875000000000
0.000000000000000      0.000000000000000      0.000000000000000
3.695500000000000      0.000000000000000      3.695500000000000
3.695500000000000      3.695500000000000      0.000000000000000
0.000000000000000      3.695500000000000      3.695500000000000
}
Hamiltonian = DFTB {
  SCC = Yes
  OrbitalResolvedSCC = Yes
  ReadInitialCharges = Yes
  MaxSCCIterations = 1
  SlaterKosterFiles = Type2FileNames {
    Prefix = "../../skf/"
    Separator = "-"
    Suffix = ".skf"
    LowerCaseTypeName = No
  }
  MaxAngularMomentum = {
    Si = "d"
    O = "p"
  }
  Filling = Fermi {
    Temperature [Kelvin] = 0.0
    IndependentKFilling = No
  }
  KPointsAndWeights = Klines {
1    0.5      0.0      0.5
85   0.0      0.0      0.0
90   0.375    0.375    0.750
52   0.5      0.5      0.5
73   0.0      0.0      0.0
  }
  PolynomialRepulsive = {}
  OldRepulsiveSum = No
  OldSKInterpolation = No
  Charge = 0.000000000000000E+000
  SCCTolerance = 1.000000000000000E-005
  Mixer = Broyden {
    MixingParameter = 0.200000000000000
    CachedIterations = -1
    InverseJacobiWeight = 1.000000000000000E-002
    MinimalWeight = 1.00000000000000
    MaximalWeight = 100000.000000000
    WeightFactor = 1.000000000000000E-002
  }
  ElectricField = {}
  DampXH = No
  EwaldParameter = 0.000000000000000E+000
  SpinPolarisation = {}
  Eigensolver = DivideAndConquer {}
  Dispersion = {}
  ThirdOrder = No
  ThirdOrderFull = No
}
ParserOptions = {
  ParserVersion = 4
  WriteHSDInput = Yes
  WriteXMLInput = No
  StopAfterParsing = No
  IgnoreUnprocessedNodes = No
}
Driver = {}
Analysis = {
  ProjectStates = {}
}
Options = {
  CalculateForces = No
  ConvergentForcesOnly = Yes
  WriteEigenvectors = No
  WriteAutotestTag = No
  WriteDetailedXML = No
  WriteResultsTag = No
  WriteDetailedOut = Yes
  WriteBandOut = Yes
  AtomResolvedEnergies = No
  RestartFrequency = 20
  RandomSeed = 0
  WriteHS = No
  WriteRealHS = No
  MinimiseMemoryUsage = No
  ShowFoldedCoords = No
}
