Geometry = GenFormat {
  <<< "../UnitCell.gen"
}

Hamiltonian = DFTB {
  SCC = Yes
  SCCTolerance = 1e-8
  OrbitalResolvedSCC = No
  ReadInitialCharges = No
  MaxSCCIterations = 100
  SlaterKosterFiles {
    Si-Si = "~/.local/share/dftb/skf-dftb.org/siband-1-1/Si-Si.skf"
  }
  MaxAngularMomentum {
    Si = "d"
  }
  Filling = Fermi {
    Temperature [Kelvin] = 0.0
  }
  KPointsAndWeights = SupercellFolding {
    16 0 0
    0 16 0
    0 0 16
    0.0 0.0 0.0
  }
  SpinPolarisation = {}
  SpinOrbit = { Si [eV] = {0.0 +0.037 0.0} }
}

Analysis {}


Options {}

ParserOptions {
  ParserVersion = 4
}
