k-points for bandstructure G-X-W-K-F-L-U-W-L-K|U-X
40
line
reciprocal
0.00000  0.00000  0.00000    1 ! Gamma
0.50000  0.00000  0.50000    1 ! X

0.50000  0.00000  0.50000    1 ! X
0.50000  0.25000  0.75000    1 ! W

0.50000  0.25000  0.75000    1 ! W
0.37500  0.37500  0.75000    1 ! K

0.37500  0.37500  0.75000    1 ! K
0.00000  0.00000  0.00000    1 ! Gamma

0.00000  0.00000  0.00000    1 ! Gamma
0.50000  0.50000  0.50000    1 ! L

0.50000  0.50000  0.50000    1 ! L
0.62500  0.25000  0.62500    1 ! U

0.62500  0.25000  0.62500    1 ! U
0.50000  0.25000  0.75000    1 ! W

0.50000  0.25000  0.75000    1 ! W
0.50000  0.50000  0.50000    1 ! L

0.50000  0.50000  0.50000    1 ! L
0.37500  0.37500  0.75000    1 ! K

0.62500  0.25000  0.62500    1 ! U
0.50000  0.00000  0.50000    1 ! X