Geometry = GenFormat {
  <<< "POS.gen"
}

<<+ "../common.hsd"
