Hamiltonian = DFTB {
  SCC = Yes
  SCCTolerance = 1e-6
  SlaterKosterFiles = Type2FileNames {
    Prefix = "../../skf/"
    Separator = "-"
    Suffix = ".skf"
  }
  MaxAngularMomentum {
    Mo = "d"
    S  = "d"
  }
  Filling = Fermi {
    Temperature [Kelvin] = 0.0
  }
  KPointsAndWeights = SupercellFolding {
    9 0 0
    0 9 0
    0 0 1
    0.0 0.0 0.0
  }
}
